0 4370
3 4318
4 4289
5 4208
6 4201
16 4186
19 4159
29 4133
30 4106
33 4096
41 4036
56 4007
79 3979
83 3976
102 3969
107 3965
112 3943
119 3934
123 3928
124 3875
142 3874
145 3860
149 3856
150 3854
157 3848
162 3831
164 3814
178 3808
209 3807
257 3805
274 3803
290 3801
333 3793
380 3781
384 3775
403 3770
462 3763
484 3752
496 3737
506 3735
523 3723
535 3708
542 3700
571 3689
667 3687
1108 3685
1156 3681
1166 3674
1188 3668
1290 3664
1330 3659
1422 3658
1446 3655
1517 3646
1560 3639
1719 3635
1789 3631
1800 3628
1841 3618
2081 3611
2093 3599
2095 3593
2158 3590
2350 3589
2374 3583
2392 3577
2515 3570
2620 3566
2809 3565
2838 3564
2973 3563
2997 3554
4603 3553
6269 3545
6276 3543
6498 3535
7296 3534
7368 3532
7511 3522
7875 3521
8695 3518
9321 3516
9735 3507
281666 3505
281667 3499
281871 3498
283261 3497
